NAME : sample13
COMMENT : Sample dataset with 13 nodes
COMMENT : Derived from Zainab
TYPE : TSP
DIMENSION : 13
EDGE_WEIGHT_TYPE : EUC_2D
NODE_COORD_SECTION
1 12.345 45.678
2 67.890 23.456
3 34.789 56.234
4 90.123 78.345
5 56.234 32.109
6 98.765 76.890
7 21.456 89.567
8 45.678 65.789
9 87.234 54.321
10 23.456 76.890
11 54.321 12.345
12 76.890 98.765
13 32.109 67.890
EOF
